Automatically generated mesh
      133
Reciprocal lattice
    0.00000000000000    0.00000000000000    0.00000000000000             1
    0.12500000000000    0.00000000000000    0.00000000000000             2
    0.25000000000000    0.00000000000000    0.00000000000000             2
    0.37500000000000    0.00000000000000    0.00000000000000             2
    0.50000000000000    0.00000000000000    0.00000000000000             1
    0.00000000000000    0.12500000000000    0.00000000000000             2
    0.12500000000000    0.12500000000000    0.00000000000000             2
    0.25000000000000    0.12500000000000    0.00000000000000             2
    0.37500000000000    0.12500000000000    0.00000000000000             2
    0.50000000000000    0.12500000000000    0.00000000000000             2
   -0.37500000000000    0.12500000000000    0.00000000000000             2
   -0.25000000000000    0.12500000000000    0.00000000000000             2
   -0.12500000000000    0.12500000000000    0.00000000000000             2
    0.00000000000000    0.25000000000000    0.00000000000000             2
    0.12500000000000    0.25000000000000    0.00000000000000             2
    0.25000000000000    0.25000000000000    0.00000000000000             2
    0.37500000000000    0.25000000000000    0.00000000000000             2
    0.50000000000000    0.25000000000000    0.00000000000000             2
   -0.37500000000000    0.25000000000000    0.00000000000000             2
   -0.25000000000000    0.25000000000000    0.00000000000000             2
   -0.12500000000000    0.25000000000000    0.00000000000000             2
    0.00000000000000    0.37500000000000    0.00000000000000             2
    0.12500000000000    0.37500000000000    0.00000000000000             2
    0.25000000000000    0.37500000000000    0.00000000000000             2
    0.37500000000000    0.37500000000000    0.00000000000000             2
    0.50000000000000    0.37500000000000    0.00000000000000             2
   -0.37500000000000    0.37500000000000    0.00000000000000             2
   -0.25000000000000    0.37500000000000    0.00000000000000             2
   -0.12500000000000    0.37500000000000    0.00000000000000             2
    0.00000000000000    0.50000000000000    0.00000000000000             1
    0.12500000000000    0.50000000000000    0.00000000000000             2
    0.25000000000000    0.50000000000000    0.00000000000000             2
    0.37500000000000    0.50000000000000    0.00000000000000             2
    0.50000000000000    0.50000000000000    0.00000000000000             1
0.000000 0.000000 0.000000 0.000000
0.000000 0.015625 0.000000 0.000000
0.000000 0.031250 0.000000 0.000000
0.000000 0.046875 0.000000 0.000000
0.000000 0.062500 0.000000 0.000000
0.000000 0.078125 0.000000 0.000000
0.000000 0.093750 0.000000 0.000000
0.000000 0.109375 0.000000 0.000000
0.000000 0.125000 0.000000 0.000000
0.000000 0.140625 0.000000 0.000000
0.000000 0.156250 0.000000 0.000000
0.000000 0.171875 0.000000 0.000000
0.000000 0.187500 0.000000 0.000000
0.000000 0.203125 0.000000 0.000000
0.000000 0.218750 0.000000 0.000000
0.000000 0.234375 0.000000 0.000000
0.000000 0.250000 0.000000 0.000000
0.000000 0.265625 0.000000 0.000000
0.000000 0.281250 0.000000 0.000000
0.000000 0.296875 0.000000 0.000000
0.000000 0.312500 0.000000 0.000000
0.000000 0.328125 0.000000 0.000000
0.000000 0.343750 0.000000 0.000000
0.000000 0.359375 0.000000 0.000000
0.000000 0.375000 0.000000 0.000000
0.000000 0.390625 0.000000 0.000000
0.000000 0.406250 0.000000 0.000000
0.000000 0.421875 0.000000 0.000000
0.000000 0.437500 0.000000 0.000000
0.000000 0.453125 0.000000 0.000000
0.000000 0.468750 0.000000 0.000000
0.000000 0.484375 0.000000 0.000000
0.000000 0.500000 0.000000 0.000000
0.000000 0.500000 0.000000 0.000000
0.010417 0.494792 0.000000 0.000000
0.020833 0.489583 0.000000 0.000000
0.031250 0.484375 0.000000 0.000000
0.041667 0.479167 0.000000 0.000000
0.052083 0.473958 0.000000 0.000000
0.062500 0.468750 0.000000 0.000000
0.072917 0.463542 0.000000 0.000000
0.083333 0.458333 0.000000 0.000000
0.093750 0.453125 0.000000 0.000000
0.104167 0.447917 0.000000 0.000000
0.114583 0.442708 0.000000 0.000000
0.125000 0.437500 0.000000 0.000000
0.135417 0.432292 0.000000 0.000000
0.145833 0.427083 0.000000 0.000000
0.156250 0.421875 0.000000 0.000000
0.166666 0.416666 0.000000 0.000000
0.177083 0.411458 0.000000 0.000000
0.187500 0.406250 0.000000 0.000000
0.197916 0.401041 0.000000 0.000000
0.208333 0.395833 0.000000 0.000000
0.218750 0.390625 0.000000 0.000000
0.229166 0.385416 0.000000 0.000000
0.239583 0.380208 0.000000 0.000000
0.250000 0.375000 0.000000 0.000000
0.260416 0.369791 0.000000 0.000000
0.270833 0.364583 0.000000 0.000000
0.281250 0.359375 0.000000 0.000000
0.291666 0.354166 0.000000 0.000000
0.302083 0.348958 0.000000 0.000000
0.312500 0.343750 0.000000 0.000000
0.322916 0.338541 0.000000 0.000000
0.333333 0.333333 0.000000 0.000000
0.333333 0.333333 0.000000 0.000000
0.322916 0.322916 0.000000 0.000000
0.312500 0.312500 0.000000 0.000000
0.302083 0.302083 0.000000 0.000000
0.291666 0.291666 0.000000 0.000000
0.281250 0.281250 0.000000 0.000000
0.270833 0.270833 0.000000 0.000000
0.260416 0.260416 0.000000 0.000000
0.250000 0.250000 0.000000 0.000000
0.239583 0.239583 0.000000 0.000000
0.229166 0.229166 0.000000 0.000000
0.218750 0.218750 0.000000 0.000000
0.208333 0.208333 0.000000 0.000000
0.197916 0.197916 0.000000 0.000000
0.187500 0.187500 0.000000 0.000000
0.177083 0.177083 0.000000 0.000000
0.166666 0.166666 0.000000 0.000000
0.156250 0.156250 0.000000 0.000000
0.145833 0.145833 0.000000 0.000000
0.135417 0.135417 0.000000 0.000000
0.125000 0.125000 0.000000 0.000000
0.114583 0.114583 0.000000 0.000000
0.104167 0.104167 0.000000 0.000000
0.093750 0.093750 0.000000 0.000000
0.083333 0.083333 0.000000 0.000000
0.072917 0.072917 0.000000 0.000000
0.062500 0.062500 0.000000 0.000000
0.052083 0.052083 0.000000 0.000000
0.041667 0.041667 0.000000 0.000000
0.031250 0.031250 0.000000 0.000000
0.020833 0.020833 0.000000 0.000000
0.010417 0.010417 0.000000 0.000000
0.000000 0.000000 0.000000 0.000000