&control
	! scf, nscf, bands, relax, md, vc-relax, vc-md (vc = variable-cell)
	calculation   = 'bands'  
	! from_scratch or restart
	restart_mode  = 'from_scratch'  
	! prepended to input/output filenames, prefix.wfc 
	prefix        = 'pw_band'
	! calculate stress. Default: .false.  
	tstress       = .true. 
	! calculate forces 
	tprnfor       = .true. 
	wf_collect    = .true.
	! Default:1 if calculation == 'scf', 'nscf', 'bands'; 50 for the other cases
	nstep         = 1      
	! 10*24*60*60s, 10 days
	max_seconds   = 864000 
	! Convergence threshold on total energy (a.u) for ionic minimization
	etot_conv_thr = 1.0D-4 
	! Convergence threshold on forces (a.u) for ionic minimization
	forc_conv_thr = 1.0D-3 
	! dipole correction, in a slab geometry, for surface calculations
	dipfield      = .false. 
	! Default is 'low' for the scf case, 'medium' otherwise.
	disk_io       = 'low'    
	outdir        = './'
	pseudo_dir    = '../' 
	wfcdir        = './'
/

&system
	! specify units in CELL_PARAMETERS and ATOMIC_POSITIONS
	ibrav      = 0   
	! number of atoms in the unit cell 
	nat        = 2   
	! Default
	tot_charge = 0.0 
	! number of types of atoms in the unit cell
	ntyp       = 1   
	nbnd      = 16 
	! electrons /2
	! kinetic energy cutoff (Ry) for wavefunctions; 1[a.u.]=27.2114[eV]=2[Ry]
	ecutwfc    = 40  
	ecutrho    = 300
	occupations='smearing' 
	smearing   = 'gaussian'
	degauss    = 0.1
	! 1 or 2
	nspin      = 1   
	! Van der Waals correction
	vdw_corr   = 'Grimme-D3' 
	! Hubbard_U setting in here
/

&electrons
	! maximum number of iterations in a scf step
	electron_maxstep  = 120    
	! Default
	scf_must_converge = .true. 
	! Convergence threshold for selfconsistency; Default: 1.D-6
	conv_thr	      = 1.D-5  
	! david, cg, ppcg, paro
	diagonalization   = 'david'
	! Default
	mixing_mode       = 'plain'
	! Default
	mixing_beta       = 0.7    
	! Default
	real_space        = .false.
/

ATOMIC_SPECIES
C 12.01070 C_pbe_paw.UPF

CELL_PARAMETERS angstrom
   2.465608258   0.000001405   0.000000000
  -1.232802912   2.135280089   0.000000000
   0.000000000   0.000000000  15.000000000

! alat or angstrom or crystal
ATOMIC_POSITIONS crystal 
C            -0.0000298314        0.0000298314        0.4450993676
C             0.3333598364        0.6666401926        0.4451006504

! automatic, gamma,
K_POINTS {crystal_b} 
4
0.0000 0.0000 0.0000 20
0.0000 0.5000 0.0000 20
0.3333 0.3333 0.0000 20
0.0000 0.0000 0.0000 1

