0-3r                                    
   1.00000000000000     
     3.1520592482970593    0.0000018340056402    0.0000000000000000
    -1.5760210609370191    2.7297581313392727    0.0000000000000000
     0.0000000000000000    0.0000000000000000   24.2024002074999984
   W    Mo   S 
     1     1     4
Direct
  0.3319487869247340  0.6660639100570549  0.2920564348597594
  0.9979923938835285  0.9991286799536994  0.5415536530360967
  0.6652947364566444  0.3327359242294037  0.2269677754773269
  0.6652728402150601  0.3327265951397678  0.3570528582839998
  0.3313014302915889  0.6657848985141257  0.6063841563166221
  0.3313597882284540  0.6658100041059427  0.4768881180262028
 
  0.00000000E+00  0.00000000E+00  0.00000000E+00
  0.00000000E+00  0.00000000E+00  0.00000000E+00
  0.00000000E+00  0.00000000E+00  0.00000000E+00
  0.00000000E+00  0.00000000E+00  0.00000000E+00
  0.00000000E+00  0.00000000E+00  0.00000000E+00
  0.00000000E+00  0.00000000E+00  0.00000000E+00
