Bilayer AB BP                           
   1.00000000000000     
     3.3135844466456934    0.0000041068989944    0.0000000000000000
     0.0000055682115459    4.5058007159656581    0.0000000000000000
     0.0000000000000000    0.0000000000000000   32.1833095551000028
   P 
     8
Direct
  0.4999993288662402  0.9147820045705995  0.3048498259928462
  0.5000006754213469  0.0857777724643851  0.3707417139174529
  0.0000008014440143  0.5852167349135082  0.3048498979262980
 -0.0000006326926195  0.4142227179056010  0.3707418305868004
 -0.0000006642121665  0.9142216231759895  0.1426855917365467
  0.0000007050923691  0.0852185691359595  0.2085771867657878
  0.5000005585163046  0.5857788501761108  0.1426856961131398
  0.4999992271409778  0.4147817125744520  0.2085772896148704
 
  0.00000000E+00  0.00000000E+00  0.00000000E+00
  0.00000000E+00  0.00000000E+00  0.00000000E+00
  0.00000000E+00  0.00000000E+00  0.00000000E+00
  0.00000000E+00  0.00000000E+00  0.00000000E+00
  0.00000000E+00  0.00000000E+00  0.00000000E+00
  0.00000000E+00  0.00000000E+00  0.00000000E+00
  0.00000000E+00  0.00000000E+00  0.00000000E+00
  0.00000000E+00  0.00000000E+00  0.00000000E+00
