Titel of Simulation
   1.0000
   15.0000000000 0.0000000000 0.0000000000
   0.0000000000 15.0000000000 0.0000000000
   0.0000000000 0.0000000000 4.2699000000
 C
 32
Direct
0.3060999999999999 0.4197000000000000 0.8328000000000000
0.6939000000000000 0.4197000000000000 0.8328000000000000
0.6939000000000000 0.5803000000000000 0.8328000000000000
0.4197000000000000 0.6939000000000000 0.8328000000000000
0.5803000000000000 0.6939000000000000 0.8328000000000000
0.5803000000000000 0.3061000000000000 0.8328000000000000
0.4197000000000000 0.3061000000000000 0.8328000000000000
0.3061000000000000 0.5803000000000000 0.8328000000000000
0.4197000000000000 0.3061000000000000 0.5000000000000000
0.6939000000000000 0.5803000000000000 0.5000000000000000
0.5803000000000000 0.3061000000000000 0.5000000000000000
0.6939000000000000 0.4197000000000000 0.5000000000000000
0.3061000000000000 0.4197000000000000 0.5000000000000000
0.4197000000000000 0.6939000000000000 0.5000000000000000
0.5803000000000000 0.6939000000000000 0.5000000000000000
0.3061000000000000 0.5803000000000000 0.5000000000000000
0.2901000000000001 0.5000000000000000 0.3328000000000000
0.3516000000000000 0.3516000000000000 0.3328000000000000
0.5000000000000000 0.2901000000000000 0.3328000000000000
0.3516000000000000 0.6484000000000000 0.3328000000000000
0.6483999999999999 0.3516000000000000 0.3328000000000000
0.7099000000000000 0.5000000000000000 0.3328000000000000
0.6483999999999999 0.6484000000000000 0.3328000000000000
0.5000000000000000 0.7099000000000000 0.3328000000000000
0.3516000000000000 0.6484000000000000 0.0000000000000000
0.2901000000000001 0.5000000000000000 0.0000000000000000
0.6483999999999999 0.6484000000000000 0.0000000000000000
0.5000000000000000 0.7099000000000000 0.0000000000000000
0.3516000000000000 0.3516000000000000 0.0000000000000000
0.5000000000000000 0.2901000000000000 0.0000000000000000
0.7099000000000000 0.5000000000000000 0.0000000000000000
0.6483999999999999 0.3516000000000000 0.0000000000000000
