&CONTROL
	! scf, nscf, bands, relax, md, vc-relax, vc-md (vc = variable-cell)
	calculation   = 'vc-relax' 
	restart_mode  = 'from_scratch'  
	prefix        = 'pw_run'
	tstress       = .true.
	tprnfor       = .true.
	wf_collect    = .false.  
	max_seconds   = 864000
	etot_conv_thr = 1.0D-4
	forc_conv_thr = 1.0D-3
	dipfield      = .false.
	disk_io       = 'none'
	pseudo_dir    = './'  
	outdir        = './'
/
&SYSTEM
	ibrav      = 0
	nat        = 2  
	tot_charge = 0.0 
	ntyp       = 1
	ecutwfc    = 40  
	ecutrho    = 306
	nspin      = 1
	vdw_corr   = 'Grimme-D3'
/
&ELECTRONS
	electron_maxstep  = 120  
	scf_must_converge = .true. 
	conv_thr	      = 1.D-5
	diagonalization   = 'david'
	mixing_mode       = 'plain'
	mixing_beta       = 0.7
	real_space        = .false.
/
&IONS
	ion_positions  = 'default'  
	ion_velocities = 'default' 
	ion_dynamics   = 'bfgs' 
/
&CELL
	cell_dynamics = 'bfgs'
	press         = 0.D0
	cell_dofree   = '2Dxy' 
/
! test
ATOMIC_SPECIES
C 12.01070 C_pbe_paw.UPF

CELL_PARAMETERS angstrom
2.4600000381         0.0000000000         0.0000000000
-1.2300000191         2.1304225263         0.0000000000
0.0000000000         0.0000000000        15.0000000000

ATOMIC_POSITIONS crystal
C 0.000000000         0.000000000         0.445100009
C 0.333330005         0.666670024         0.445100009

K_POINTS automatic 
5 5 1 0 0 0
